p cnf 19 8
a 1 0
e 2 3 4 5 0
a 6 7 8 9 10 11 0
e 12 13 0
a 14 0
e 15 16 17 0
a 18 0
e 19 0
14 -18 -9 -13 15 0
9 13 8 14 -6 0
15 13 10 6 19 0
15 2 -11 -8 0
-17 -8 -16 -18 -11 0
-14 12 17 9 8 0
-6 4 2 16 0
-15 -4 -8 -17 -1 0
